W=5;
H=5;

MAX_TIME=18;
MAX_TRACKS=7;

TARGET=(3,5);

TRAINS=[(1,5,LEFT),(5,1,RIGHT)];

INIT_POS=[
(1,5,STRAIGHT_RL),
(2,3,SWITCH_T_D_R),
(2,4,CORNER_DL),
(3,2,SWITCH_T_D_L),
(3,3,STRAIGHT_TD),
(3,4,DSWITCH_T_D_R),
(3,5,STRAIGHT_RL),
(4,3,SWITCH_L_R_T),
(4,4,CORNER_TL),
(5,1,STRAIGHT_RL),
];
TUNNEL_PAIRS=[];

GATES=[];
ACTIVATIONS=[
(3,2,1),
(3,3,1),
];

DSWITCHES=[
(3,4,1),
];
STATIONS=[];
